p cnf 100 160
64 -84 49 0
71 -30 -74 0
-12 -69 82 0
57 -69 -12 0
45 61 -62 0
-41 -71 80 0
-2 -28 -18 0
95 -81 48 0
67 94 -11 0
22 -71 84 0
47 -71 -89 0
-6 -10 48 0
-73 -68 -38 0
-26 70 -62 0
72 -62 54 0
-53 59 -35 0
-99 -52 40 0
-42 -1 40 0
1 84 83 0
-19 59 42 0
2 42 87 0
71 87 -44 0
-57 6 -63 0
-27 25 12 0
-66 86 37 0
-29 25 -6 0
-50 -88 37 0
-76 17 -39 0
-13 -27 -59 0
19 6 -84 0
49 -9 6 0
78 70 44 0
58 -70 -86 0
-83 49 28 0
95 18 -68 0
-63 -99 5 0
-66 48 52 0
70 -20 -64 0
65 51 4 0
99 -45 -29 0
-69 -49 -11 0
96 73 -5 0
-20 65 -33 0
62 71 9 0
49 74 69 0
-90 15 -86 0
-84 -99 -97 0
-6 24 -21 0
-38 -26 87 0
54 -22 -28 0
77 57 58 0
22 34 -65 0
-71 25 -72 0
7 92 -82 0
-47 42 29 0
-74 100 -10 0
-91 -79 12 0
67 100 86 0
53 68 73 0
-65 74 35 0
-92 53 -39 0
-11 -2 13 0
-25 -31 20 0
-52 -46 -13 0
-95 65 -45 0
68 89 -46 0
-16 54 80 0
-40 71 66 0
29 -23 89 0
-80 -67 -57 0
73 33 -7 0
27 -22 -72 0
90 35 70 0
24 -7 37 0
-85 -52 36 0
53 -6 -35 0
92 -9 98 0
-60 -56 -36 0
-91 6 -28 0
43 -34 72 0
49 71 81 0
-53 14 62 0
-85 24 70 0
-50 -100 -49 0
57 42 7 0
-9 40 49 0
-80 -95 -81 0
19 -51 -72 0
44 -26 85 0
7 -88 -16 0
35 99 -19 0
-80 70 30 0
-25 -58 -67 0
-53 11 12 0
17 40 18 0
21 -68 -12 0
-88 20 40 0
49 47 97 0
-5 -12 71 0
-9 32 -60 0
x -1 2 5 -7 -9 -11 14 16 -17 18 -19 -20 -22 -26 28 -31 -35 -36 -39 40 -41 42 -47 -48 -50 51 53 54 55 -56 -58 -59 60 65 66 -67 71 72 -73 -77 79 84 -85 86 -87 88 -90 -92 -93 -94 -97 -99 100 0
x -3 5 -7 -9 10 13 15 -16 -17 -19 20 -22 23 -24 -26 -27 30 34 35 -36 44 -46 47 -48 49 50 -53 54 58 -65 -66 -67 -70 -74 -75 -76 78 -79 -80 81 85 -89 90 91 -92 93 -98 100 0
x 3 -4 6 -9 -12 13 -19 -23 25 -26 29 -30 -33 34 -35 36 40 46 50 -51 52 55 56 -59 60 -66 71 -72 -74 -75 78 -79 -80 81 83 86 87 88 93 94 -98 99 0
x 1 2 -4 5 10 -13 -15 18 22 24 25 30 32 -33 34 36 -39 -40 -41 43 -48 -49 -50 -51 52 55 60 -66 69 70 -71 73 74 75 -76 -77 -80 84 -85 -86 88 90 91 92 -93 -96 -98 0
x -1 -2 -4 -8 12 -14 16 -18 20 -21 -22 23 -25 29 31 33 -35 -36 37 -38 40 43 -45 -47 -66 -68 -75 79 81 88 89 100 0
x 5 -7 -8 12 -14 -15 16 -17 21 23 30 34 36 -37 -41 42 -44 -46 -49 -51 -52 -53 -54 -56 59 -61 -63 64 -65 -72 73 -74 75 -76 77 -78 79 82 -83 -85 -86 -91 92 -93 -94 95 -96 97 98 99 0
x 1 -3 5 -6 -7 -8 -10 -14 -17 -18 -26 27 -29 -30 32 35 36 -37 -38 39 -40 -43 -44 -45 46 -49 -50 53 54 59 -60 61 -63 -64 -65 -67 -68 69 -77 -78 80 82 84 85 -86 -87 -88 -90 -92 -93 94 -96 -98 99 0
x -3 -8 -15 -16 -17 21 -22 23 24 -25 27 -30 -31 33 -34 -36 -38 39 40 -42 -43 44 45 -46 47 -50 51 -52 -53 -55 -59 60 -61 63 -66 -70 71 73 -78 80 -83 -87 -88 89 92 -94 -96 98 100 0
x -2 4 -5 -9 -11 12 15 -16 17 18 21 22 -23 -26 28 29 34 35 38 42 -44 46 48 -50 51 -53 -54 58 -60 -64 -65 66 67 -71 72 76 -78 -79 -81 -83 -86 87 88 -92 93 94 -96 0
x -1 -2 -4 -6 7 8 -11 12 -14 18 20 21 23 24 25 -27 31 33 -37 38 -43 44 45 -46 -49 50 -52 53 -59 61 -63 64 -65 -66 -67 -68 69 71 -73 74 -76 -77 -80 -81 -82 84 -85 90 -93 -96 97 98 99 100 0
x 1 2 8 -9 11 14 16 17 18 -19 20 23 -25 28 29 32 -35 -36 -37 38 -39 42 -43 46 -53 58 -59 62 63 -67 75 -77 78 -79 -80 -82 85 -86 -88 89 90 91 -92 -94 95 98 0
x -4 5 6 7 8 9 11 12 14 16 -19 21 23 25 -26 -28 -30 33 -34 35 -37 -38 -39 -41 42 -48 50 55 -56 -57 -59 60 62 65 70 72 74 -75 76 80 81 -82 -85 87 89 -90 -91 92 95 -96 97 99 0
x 1 2 4 -7 8 9 10 -11 -14 16 18 20 25 -26 37 -39 40 44 -45 47 -48 -50 51 -52 54 55 -56 57 59 60 61 63 -67 73 74 75 77 79 80 83 86 -88 -92 93 94 -95 -96 -98 0
x 1 3 5 6 -10 -11 -13 14 -23 24 27 -28 -29 30 31 -34 -36 38 39 -42 43 -44 48 -51 -53 -60 62 -65 69 71 -72 73 75 -77 78 80 82 83 -84 85 87 -90 91 92 93 94 -95 96 -97 99 100 0
x 3 7 9 10 -11 -12 -16 -20 22 -23 25 -26 28 -30 -32 33 34 35 36 -37 -38 46 -47 -50 -52 53 -54 55 56 -57 60 61 62 -63 65 66 -68 69 -70 71 74 75 -77 -79 -80 81 82 83 84 88 -89 -90 91 95 -98 -99 0
x 6 -7 8 13 -15 16 -18 19 -20 -21 -24 25 28 29 31 -32 34 35 -38 39 40 -41 42 44 46 -49 50 52 58 59 60 -62 63 65 -67 69 -70 -71 -76 -81 -82 -84 -93 94 95 -98 0
x 1 -4 5 6 9 10 11 -19 -22 -23 25 -26 -27 29 30 31 -32 33 34 -35 36 -37 38 40 -41 42 -53 -54 57 -58 -60 63 64 66 67 -68 70 -71 -74 76 -81 -83 -85 88 -90 -91 -92 93 95 -96 -97 99 0
x 1 -4 5 6 8 10 -12 -14 15 16 -17 -20 -22 -23 24 25 -26 27 28 31 35 -36 -38 -42 -43 46 -48 49 -56 -59 62 -63 64 66 67 69 -71 73 74 76 -81 83 -85 -88 -93 -95 -96 98 100 0
x 5 6 7 9 -17 18 -19 20 21 -22 -23 -24 -26 -29 30 -33 34 36 37 38 -39 -41 45 47 -48 50 -54 -55 -56 58 59 -63 -67 68 -69 70 71 72 73 -75 76 78 81 -82 -83 -85 -86 88 90 -94 96 0
x 2 4 -6 -8 9 11 -14 -15 -17 -18 -19 20 21 -22 -23 24 -25 -31 -33 -36 37 39 40 41 -46 47 -48 -49 50 53 -56 57 58 59 60 -61 62 63 -66 -67 68 69 -72 -77 -79 -80 -82 84 85 -87 -89 -90 91 92 -95 97 0
x -1 4 6 -7 -8 -9 -10 -13 -18 -19 20 21 -26 27 -28 29 30 -32 34 -36 40 -41 -42 -43 -48 50 -54 55 58 60 -61 62 65 -68 -74 75 76 78 79 80 -82 -84 -87 -88 89 -90 -96 100 0
x -1 2 3 8 10 14 15 20 -22 -25 27 28 31 32 -33 34 36 -43 46 48 55 -59 -60 64 65 -66 68 72 73 -75 77 -79 80 81 82 84 87 91 92 -95 -96 97 98 99 100 0
x -1 5 -8 17 19 -20 -21 -22 -24 25 26 29 31 32 34 37 39 40 -41 -43 44 -47 49 -51 52 -56 57 63 -64 -66 -67 70 71 -73 -74 -76 77 -78 -79 -80 -82 -83 -84 87 -92 93 94 95 96 -97 99 0
x 1 -2 -3 4 6 -11 -16 -17 18 19 -25 -26 27 -29 30 31 32 33 34 37 -41 46 47 -49 51 -54 55 56 -59 -60 62 68 70 -72 77 79 80 -87 -88 -89 92 -94 -95 -96 -99 0
x 4 5 6 -7 -9 -10 12 -16 17 19 -22 25 26 -27 29 31 33 35 -36 38 -40 41 42 -45 46 -48 -52 53 56 60 -63 -64 65 -72 73 -74 77 -79 83 -86 -87 -88 90 -94 -95 -96 -97 -98 0
x -1 3 -4 6 8 -9 11 -12 13 16 19 20 21 -22 -23 -24 -25 -27 28 29 30 32 -34 35 -37 38 43 -44 -45 48 -49 -52 53 54 -56 59 60 -61 -63 65 67 -70 71 -72 -75 78 79 -80 82 84 85 -87 89 -90 91 94 95 96 -97 0
x -2 -3 6 -7 8 12 14 -16 21 -22 23 29 32 -33 -34 -36 -37 38 39 -40 -43 -44 45 46 -47 55 -57 59 -60 -61 63 66 71 77 80 -81 82 -83 84 -85 87 88 -89 90 -92 -93 94 95 96 -97 98 0
x -5 6 -7 -9 10 12 -16 -19 -20 24 -25 26 -30 34 38 41 -42 44 47 49 -50 -51 -52 55 -56 -58 -61 62 63 -64 65 -66 69 -70 71 -73 -75 78 79 -81 -88 89 -90 91 95 0
x 1 3 -5 6 -7 9 -11 12 13 14 -16 17 18 20 21 -22 24 27 28 -29 -30 -32 -34 -37 -39 41 45 46 -47 48 57 -58 60 -62 -64 -67 -68 69 70 72 -73 -75 -76 77 78 79 -80 -81 85 87 -88 90 92 94 -95 -97 -99 0
x 3 4 6 7 9 10 11 12 -14 -16 17 19 -21 -23 -24 -25 -30 -31 33 -34 -38 -40 41 -42 -44 -45 48 -49 -50 -54 -55 -57 -59 -60 -62 -64 66 68 71 72 73 74 76 -81 -85 87 88 89 -92 -95 97 -99 -100 0
x 2 -5 -6 -8 9 10 12 15 -16 19 22 24 -26 28 -30 -32 36 42 -44 45 -46 -47 -48 49 52 -53 55 -56 -59 -60 61 -62 66 69 -70 -72 74 -75 77 78 -79 -81 -82 83 -84 85 89 92 -94 100 0
x -1 2 4 -7 8 -10 -12 14 -15 -20 -21 23 -25 26 27 29 -30 31 -33 -37 39 -41 43 45 -46 48 -49 -50 -51 52 -54 56 -57 -58 60 -61 62 -65 66 -68 -69 71 -73 -75 80 -82 -83 -88 -89 -91 -94 96 97 98 99 100 0
x 2 7 -10 11 -14 -15 17 21 -26 -30 32 33 -34 37 -39 41 42 -43 -44 45 -49 50 -55 -56 -57 -62 -67 68 70 -71 74 81 -82 83 -86 -89 -90 92 -93 -94 -96 -97 0
x 1 -2 -3 5 7 -8 -9 12 -15 16 -17 19 23 -27 -30 -36 -40 -41 -42 -43 45 -50 -51 -53 54 -57 -59 63 64 -65 -69 -70 -71 -73 76 78 -79 -82 84 -86 -91 -95 -96 97 98 0
x -1 -2 -3 -5 -6 -7 8 9 10 14 15 -19 21 24 25 27 -29 33 34 -38 -41 -42 43 -44 -46 48 -49 -55 57 -60 62 65 67 -68 -70 76 -77 78 80 -81 83 85 -91 92 -94 -98 -100 0
x 3 -5 6 14 -16 17 21 27 -28 29 -30 -31 34 35 36 -38 43 -44 -46 47 50 -51 -52 54 -55 56 -58 -60 64 -65 -66 67 72 73 77 79 -80 81 -83 85 -86 -87 -90 -91 92 94 0
x -1 -2 4 -7 -8 -10 11 13 14 -16 17 21 22 -25 -26 -28 -30 -31 33 34 37 38 39 -40 41 44 47 -48 -49 53 56 -57 58 59 -60 61 63 64 -65 -66 -68 70 -72 -73 79 80 82 85 -86 87 -88 89 -91 92 93 -95 96 99 0
x -1 -2 3 4 6 -7 -14 -16 -17 -19 21 22 28 -34 37 -38 -42 -44 -48 51 52 -53 54 56 57 -60 61 62 69 -72 -73 -77 78 -80 82 86 -89 90 91 92 -94 -96 97 -98 99 -100 0
x -1 -3 4 7 -8 -9 10 12 13 14 -15 17 -19 20 -23 -24 -27 -30 -31 -35 -36 38 -39 41 42 45 -46 52 -55 57 -58 61 -62 67 -71 -72 73 -74 75 -77 78 -81 82 -83 84 -85 87 -90 -92 94 96 0
x -3 -5 6 7 -8 -9 10 11 -13 -14 16 17 20 21 22 -24 -25 27 -29 30 -32 36 37 38 -39 41 47 -50 -52 58 60 -61 63 67 70 72 -73 74 76 77 -78 79 -80 81 82 84 87 -88 -89 91 92 94 100 0
x -1 -2 -3 6 -12 16 -20 -21 27 -29 32 33 -37 -38 -39 -40 44 48 49 -54 58 -59 63 66 -67 69 -72 -73 75 -79 82 84 85 -89 -93 -96 97 0
x 3 -4 5 6 13 -14 21 23 25 -26 -28 -30 32 33 34 -35 -36 39 -41 -42 -45 46 48 49 -52 -53 -54 56 -59 -60 -63 -64 65 66 69 72 -73 78 -80 -84 -88 -92 93 94 -98 -99 0
x 2 4 -8 9 14 15 16 17 20 21 22 23 24 25 -26 29 -30 32 -38 -39 -41 -42 -45 48 -50 -51 -53 55 -56 -58 -59 62 -63 -64 -66 -68 -69 -70 -71 -73 74 77 78 -79 -87 89 -90 -92 -94 95 -96 99 0
x -3 -9 11 -12 -17 -20 21 25 -27 -28 34 35 36 38 -39 41 42 43 -44 49 -54 57 -58 -59 -60 -61 -62 64 -65 69 70 72 73 -74 77 -79 80 -81 83 -84 -88 89 -90 -92 93 97 98 -99 -100 0
x -4 6 7 11 -14 -16 -18 21 -27 28 -31 32 -35 -36 -37 41 42 -47 49 -50 51 52 -53 -54 55 -56 58 -60 61 -62 -64 -70 71 -74 -75 -76 78 -80 81 -82 -85 87 -91 98 99 0
x -2 -3 -5 -6 8 14 -17 -19 -20 21 -22 23 -27 -31 32 37 42 -43 -46 47 49 -50 -51 52 53 -54 58 -59 60 -61 65 67 68 -69 74 75 77 79 -80 -82 83 85 86 -88 -90 92 -94 -95 -96 -98 100 0
x 1 -2 3 4 -7 14 15 -16 -17 -18 20 -26 -27 -28 31 -32 -33 34 -37 38 -40 41 -42 47 49 50 -52 -53 55 56 -58 60 -62 63 64 -65 68 -69 71 -72 74 -75 -81 -82 83 -84 85 -86 87 90 91 94 -95 -100 0
x -2 -3 12 -14 -15 -16 18 20 22 -24 26 -27 -29 -30 -34 -35 36 -39 -42 43 -47 48 49 -51 -52 -56 57 58 59 60 -61 -66 72 74 76 78 79 -80 -81 82 83 -84 -85 86 88 89 -93 -96 100 0
x -3 10 -14 15 -18 -22 25 27 -30 -33 36 -37 39 -41 -42 -44 50 -51 58 59 61 -62 64 -70 -73 -74 75 -77 -78 -81 82 84 86 -87 -89 -91 92 93 94 0
x 2 3 6 7 -9 -10 13 14 -18 26 29 -30 -34 -35 39 -40 -41 44 45 -48 49 50 -51 54 56 -57 -58 59 -60 -62 -63 -64 -65 -66 -67 -68 70 71 74 -75 77 78 -79 -80 81 -85 86 87 -88 91 92 -93 94 96 97 -98 99 0
x -2 -6 10 -14 15 19 -20 23 24 -27 -28 -30 -31 -32 35 -36 -37 38 -41 42 43 49 -50 -54 57 -58 59 -62 64 -66 68 70 -72 73 74 -75 -76 78 79 80 -81 82 -84 -86 -88 -90 91 -92 95 96 -97 -100 0
x -4 5 -6 -7 -9 11 13 15 -18 20 21 25 26 -27 29 33 -35 -36 37 39 41 -44 -45 48 52 -55 57 59 61 62 63 64 65 -66 67 -69 -70 -72 -74 -76 -77 -78 -80 -82 -86 -87 89 90 -91 -94 -96 -98 -100 0
x -3 6 -7 8 9 -10 13 15 18 -20 -21 -22 -23 -24 25 -28 30 31 -34 -38 39 -40 42 -44 -45 47 -48 49 -50 -55 56 -57 -58 59 64 65 66 -67 69 71 -72 -74 75 -76 -77 80 81 82 84 87 88 -89 92 -93 -95 96 99 -100 0
x 1 4 -6 -7 8 9 -10 -11 -13 -15 -18 19 -20 27 -30 32 34 -37 -38 -39 -40 41 42 -43 44 -47 48 49 50 -52 -54 -55 57 58 -62 63 64 -66 71 73 75 80 82 84 -85 86 87 -88 89 90 -92 95 -96 97 98 99 0
x -2 3 -5 6 8 13 14 -15 16 17 -19 -20 -22 24 -26 27 31 32 35 -36 -41 43 -47 48 -49 50 -53 -56 -57 58 62 63 -64 68 70 71 -72 73 -77 -79 -80 -85 -87 -89 -90 -92 -93 94 95 97 -100 0
x 1 4 8 9 13 -14 15 -20 21 -22 23 -24 -27 -28 -34 -35 36 -39 -40 -41 42 -44 -45 -46 -48 -49 -51 52 54 -59 60 -63 64 -66 68 69 70 -71 -73 76 82 -85 -87 89 -92 95 -99 0
x 3 5 6 -8 9 13 14 15 -16 18 19 22 25 -28 30 33 34 35 -37 38 -39 -42 46 -50 -53 -54 59 -60 -61 62 65 66 67 68 69 -71 -72 -73 -75 77 78 -79 -83 87 89 90 92 93 -94 -95 -98 0
x 1 -2 5 6 7 9 13 14 16 -18 -20 21 -22 24 27 28 33 -34 36 -39 -48 50 51 52 -55 -58 -60 -61 62 -63 69 -70 -74 -75 76 77 79 -80 81 -82 85 -87 89 93 95 -97 -99 0
x -3 5 -7 -11 -13 14 -17 19 -20 21 -23 -25 -26 -27 -30 -34 -35 -39 40 -42 -44 -45 48 -49 -50 -52 -56 57 -59 -62 64 -65 67 69 -71 -74 -77 -79 80 85 -87 -92 93 -97 -98 -99 0
x 1 -3 4 9 -10 -13 14 -19 -20 21 -22 -23 24 25 -29 -30 -32 -35 39 45 -47 -48 -49 50 -53 56 -58 59 65 -66 67 -68 -72 -73 -76 -77 -79 -81 82 83 85 86 94 -96 98 0
